WARNING: for repeatability, setting FPU to use double precision
============================[ Problem Statistics ]=============================
|                                                                             |
|  Number of variables:        219397                                         |
|  Number of clauses:          506357                                         |
|  Parse time:                   0.28 s                                       |
|                                                                             |
============================[ Search Statistics ]==============================
| Conflicts |          ORIGINAL         |          LEARNT          | Progress |
|           |    Vars  Clauses Literals |    Limit  Clauses Lit/Cl |          |
===============================================================================
|       100 |  120714   485006  1090326 |   177835      100     16 | 44.979 % |
|       250 |  120714   485006  1090326 |   195619      250     15 | 44.979 % |
|       475 |  120714   485006  1090326 |   215180      475     18 | 44.979 % |
|       812 |  120714   485006  1090326 |   236699      812     20 | 44.979 % |
|      1318 |  120714   485006  1090326 |   260369     1318     36 | 44.979 % |
|      2077 |  120714   485006  1090326 |   286405     2077     38 | 44.979 % |
|      3216 |  120714   485006  1090326 |   315046     3216     47 | 44.979 % |
===============================================================================
restarts              : 23
conflicts             : 4507           (1146 /sec)
decisions             : 67394          (0.00 % random) (17139 /sec)
propagations          : 15098624       (3839696 /sec)
conflict literals     : 201324         (7.22 % deleted)
Memory used           : 61.00 MB
CPU time              : 3.93224 s

SATISFIABLE
